[2026-03-23T16:04:47.598Z] Pipeline "set_exp_3_exp_3_n028_c005_g001" → 2026_03_23_16_04_47_set_exp_3_exp_3_n028_c005_g001_max.sol
Set parameter WLSAccessID
Set parameter WLSSecret
Set parameter LicenseID to value 2792458
Set parameter LogFile to value "gurobi.log"
Using license file /root/gurobi.lic
Academic license 2792458 - for non-commercial use only - registered to an___@studenti.unipg.it

Gurobi Optimizer version 13.0.1 build v13.0.1rc0 (linux64 - "Ubuntu 24.04.4 LTS")
Copyright (c) 2026, Gurobi Optimization, LLC

Warning: Duplicate section found (read 'binary') - Is a variable name equal to an LP file format keyword?
Warning: Duplicate section found (read 'binary') - Is a variable name equal to an LP file format keyword?
Warning: Duplicate section found (read 'binary') - Is a variable name equal to an LP file format keyword?
Warning: Duplicate section found (read 'binary') - Is a variable name equal to an LP file format keyword?
Warning: Duplicate section found (read 'binary') - Is a variable name equal to an LP file format keyword?
Warning: Duplicate section found (read 'binary') - Is a variable name equal to an LP file format keyword?
Warning: Duplicate section found (read 'binary') - Is a variable name equal to an LP file format keyword?
Warning: Duplicate section found (read 'binary') - Is a variable name equal to an LP file format keyword?
Warning: Duplicate section found (read 'binary') - Is a variable name equal to an LP file format keyword?
Warning: Duplicate section found (read 'binary') - Is a variable name equal to an LP file format keyword?
Warning: Further warnings of this type will be omitted.
Read LP format model from file /root/bgw/data/uploads/2026_03_23_16_04_47_set_exp_3_exp_3_n028_c005_g001_max.lp
Reading time = 0.01 seconds
: 7149 rows, 528 columns, 21588 nonzeros

Using Gurobi shared library /opt/gurobi1301/linux64/lib/libgurobi.so.13.0.1

CPU model: AMD EPYC-Genoa Processor, instruction set [SSE2|AVX|AVX2|AVX512]
Thread count: 16 physical cores, 16 logical processors, using up to 16 threads

Academic license 2792458 - for non-commercial use only - registered to an___@studenti.unipg.it
Optimize a model with 7149 rows, 528 columns and 21588 nonzeros (Max)
Model fingerprint: 0xf00ddad0
Model has 5 linear objective coefficients
Variable types: 33 continuous, 495 integer (495 binary)
Coefficient statistics:
  Matrix range     [1e+00, 3e+01]
  Objective range  [1e+00, 1e+00]
  Bounds range     [1e+00, 1e+00]
  RHS range        [1e+00, 3e+01]

Found heuristic solution: objective 5.0000000
Presolve removed 555 rows and 123 columns
Presolve time: 0.03s
Presolved: 6594 rows, 405 columns, 20082 nonzeros
Variable types: 0 continuous, 405 integer (393 binary)
Found heuristic solution: objective 6.0000000

Root relaxation: objective 2.000000e+01, 255 iterations, 0.02 seconds (0.02 work units)

    Nodes    |    Current Node    |     Objective Bounds      |     Work
 Expl Unexpl |  Obj  Depth IntInf | Incumbent    BestBd   Gap | It/Node Time

     0     0   20.00000    0   29    6.00000   20.00000   233%     -    0s
H    0     0                      11.0000000   20.00000  81.8%     -    0s
H    0     0                      14.0000000   20.00000  42.9%     -    0s
H    0     0                      15.0000000   20.00000  33.3%     -    0s
     0     0   20.00000    0   47   15.00000   20.00000  33.3%     -    0s
     0     0   20.00000    0   46   15.00000   20.00000  33.3%     -    0s
     0     0   20.00000    0   79   15.00000   20.00000  33.3%     -    0s
     0     0   20.00000    0   29   15.00000   20.00000  33.3%     -    0s
     0     0   20.00000    0   28   15.00000   20.00000  33.3%     -    0s
     0     0   20.00000    0   28   15.00000   20.00000  33.3%     -    0s
     0     0   20.00000    0   42   15.00000   20.00000  33.3%     -    0s
     0     0   20.00000    0   31   15.00000   20.00000  33.3%     -    1s
     0     0   20.00000    0   34   15.00000   20.00000  33.3%     -    1s
     0     0   20.00000    0   33   15.00000   20.00000  33.3%     -    1s
     0     0   20.00000    0   42   15.00000   20.00000  33.3%     -    1s
     0     0   20.00000    0   30   15.00000   20.00000  33.3%     -    2s
     0     0   20.00000    0   30   15.00000   20.00000  33.3%     -    2s
     0     0   20.00000    0   30   15.00000   20.00000  33.3%     -    2s
     0     2   20.00000    0   30   15.00000   20.00000  33.3%     -    2s
   761   193 infeasible   13        15.00000   19.00000  26.7%   192    5s

Cutting planes:
  Cover: 38
  Inf proof: 37
  Zero half: 3

Explored 2836 nodes (527242 simplex iterations) in 8.14 seconds (10.35 work units)
Thread count was 16 (of 16 available processors)

Solution count 5: 15 14 11 ... 5

Optimal solution found (tolerance 1.00e-04)
Best objective 1.500000000000e+01, best bound 1.500000000000e+01, gap 0.0000%

Wrote result file '/root/bgw/data/results/2026_03_23_16_04_47_set_exp_3_exp_3_n028_c005_g001_max.sol'

